Nodes = {"Frankfurt", "Koeln", "Hamburg", "Hannover", "Karlsruhe", "Stuttgart", "Muenchen", "Nuernberg", "Berlin", "Leipzig"};
Arcs = {<"Frankfurt","Koeln",25,0>, <"Frankfurt","Hamburg",25,0>, <"Frankfurt","Hannover",25,0>, <"Frankfurt","Karlsruhe",25,0>, <"Frankfurt","Stuttgart",25,0>, <"Frankfurt","Muenchen",25,0>, <"Frankfurt","Nuernberg",25,0>, <"Frankfurt","Berlin",25,0>, <"Frankfurt","Leipzig",25,0>, <"Koeln","Frankfurt",25,0>, <"Koeln","Hamburg",25,0>, <"Koeln","Hannover",25,0>, <"Koeln","Karlsruhe",25,0>, <"Koeln","Stuttgart",25,0>, <"Koeln","Muenchen",25,0>, <"Koeln","Nuernberg",25,0>, <"Koeln","Berlin",25,0>, <"Koeln","Leipzig",25,0>, <"Hamburg","Frankfurt",25,0>, <"Hamburg","Koeln",25,0>, <"Hamburg","Hannover",25,0>, <"Hamburg","Karlsruhe",25,0>, <"Hamburg","Stuttgart",25,0>, <"Hamburg","Muenchen",25,0>, <"Hamburg","Nuernberg",25,0>, <"Hamburg","Berlin",25,0>, <"Hamburg","Leipzig",25,0>, <"Hannover","Frankfurt",25,0>, <"Hannover","Koeln",25,0>, <"Hannover","Hamburg",25,0>, <"Hannover","Karlsruhe",25,0>, <"Hannover","Stuttgart",25,0>, <"Hannover","Muenchen",25,0>, <"Hannover","Nuernberg",25,0>, <"Hannover","Berlin",25,0>, <"Hannover","Leipzig",25,0>, <"Karlsruhe","Frankfurt",25,0>, <"Karlsruhe","Koeln",25,0>, <"Karlsruhe","Hamburg",25,0>, <"Karlsruhe","Hannover",25,0>, <"Karlsruhe","Stuttgart",25,0>, <"Karlsruhe","Muenchen",25,0>, <"Karlsruhe","Nuernberg",25,0>, <"Karlsruhe","Berlin",25,0>, <"Karlsruhe","Leipzig",25,0>, <"Stuttgart","Frankfurt",25,0>, <"Stuttgart","Koeln",25,0>, <"Stuttgart","Hamburg",25,0>, <"Stuttgart","Hannover",25,0>, <"Stuttgart","Karlsruhe",25,0>, <"Stuttgart","Muenchen",25,0>, <"Stuttgart","Nuernberg",25,0>, <"Stuttgart","Berlin",25,0>, <"Stuttgart","Leipzig",25,0>, <"Muenchen","Frankfurt",25,0>, <"Muenchen","Koeln",25,0>, <"Muenchen","Hamburg",25,0>, <"Muenchen","Hannover",25,0>, <"Muenchen","Karlsruhe",25,0>, <"Muenchen","Stuttgart",25,0>, <"Muenchen","Nuernberg",25,0>, <"Muenchen","Berlin",25,0>, <"Muenchen","Leipzig",25,0>, <"Nuernberg","Frankfurt",25,0>, <"Nuernberg","Koeln",25,0>, <"Nuernberg","Hamburg",25,0>, <"Nuernberg","Hannover",25,0>, <"Nuernberg","Karlsruhe",25,0>, <"Nuernberg","Stuttgart",25,0>, <"Nuernberg","Muenchen",25,0>, <"Nuernberg","Berlin",25,0>, <"Nuernberg","Leipzig",25,0>, <"Berlin","Frankfurt",25,0>, <"Berlin","Koeln",25,0>, <"Berlin","Hamburg",25,0>, <"Berlin","Hannover",25,0>, <"Berlin","Karlsruhe",25,0>, <"Berlin","Stuttgart",25,0>, <"Berlin","Muenchen",25,0>, <"Berlin","Nuernberg",25,0>, <"Berlin","Leipzig",25,0>, <"Leipzig","Frankfurt",25,0>, <"Leipzig","Koeln",25,0>, <"Leipzig","Hamburg",25,0>, <"Leipzig","Hannover",25,0>, <"Leipzig","Karlsruhe",25,0>, <"Leipzig","Stuttgart",25,0>, <"Leipzig","Muenchen",25,0>, <"Leipzig","Nuernberg",25,0>, <"Leipzig","Berlin",25,0>};
Demands = {<"Frankfurt","Koeln",2,0>, <"Frankfurt","Hamburg",4,0>, <"Frankfurt","Hannover",6,0>, <"Frankfurt","Karlsruhe",8,0>, <"Frankfurt","Stuttgart",10,0>, <"Frankfurt","Muenchen",12,0>, <"Frankfurt","Nuernberg",14,1>, <"Frankfurt","Berlin",16,0>, <"Frankfurt","Leipzig",18,0>, <"Koeln","Frankfurt",2,0>, <"Koeln","Hamburg",2,0>, <"Koeln","Hannover",4,0>, <"Koeln","Karlsruhe",6,0>, <"Koeln","Stuttgart",8,0>, <"Koeln","Muenchen",10,0>, <"Koeln","Nuernberg",12,0>, <"Koeln","Berlin",14,0>, <"Koeln","Leipzig",16,0>, <"Hamburg","Frankfurt",4,0>, <"Hamburg","Koeln",2,0>, <"Hamburg","Hannover",2,0>, <"Hamburg","Karlsruhe",4,0>, <"Hamburg","Stuttgart",6,0>, <"Hamburg","Muenchen",8,0>, <"Hamburg","Nuernberg",10,0>, <"Hamburg","Berlin",12,0>, <"Hamburg","Leipzig",14,0>, <"Hannover","Frankfurt",6,0>, <"Hannover","Koeln",4,0>, <"Hannover","Hamburg",2,0>, <"Hannover","Karlsruhe",2,0>, <"Hannover","Stuttgart",4,0>, <"Hannover","Muenchen",6,0>, <"Hannover","Nuernberg",8,0>, <"Hannover","Berlin",10,0>, <"Hannover","Leipzig",12,0>, <"Karlsruhe","Frankfurt",8,0>, <"Karlsruhe","Koeln",6,0>, <"Karlsruhe","Hamburg",4,0>, <"Karlsruhe","Hannover",2,0>, <"Karlsruhe","Stuttgart",2,0>, <"Karlsruhe","Muenchen",4,0>, <"Karlsruhe","Nuernberg",6,0>, <"Karlsruhe","Berlin",8,0>, <"Karlsruhe","Leipzig",10,0>, <"Stuttgart","Frankfurt",10,0>, <"Stuttgart","Koeln",8,0>, <"Stuttgart","Hamburg",6,0>, <"Stuttgart","Hannover",4,0>, <"Stuttgart","Karlsruhe",2,0>, <"Stuttgart","Muenchen",2,0>, <"Stuttgart","Nuernberg",4,0>, <"Stuttgart","Berlin",6,0>, <"Stuttgart","Leipzig",8,0>, <"Muenchen","Frankfurt",12,0>, <"Muenchen","Koeln",10,0>, <"Muenchen","Hamburg",8,0>, <"Muenchen","Hannover",6,0>, <"Muenchen","Karlsruhe",4,0>, <"Muenchen","Stuttgart",2,0>, <"Muenchen","Nuernberg",2,0>, <"Muenchen","Berlin",4,0>, <"Muenchen","Leipzig",6,0>, <"Nuernberg","Frankfurt",14,0>, <"Nuernberg","Koeln",12,0>, <"Nuernberg","Hamburg",10,0>, <"Nuernberg","Hannover",8,0>, <"Nuernberg","Karlsruhe",6,0>, <"Nuernberg","Stuttgart",4,0>, <"Nuernberg","Muenchen",2,0>, <"Nuernberg","Berlin",2,0>, <"Nuernberg","Leipzig",4,0>, <"Berlin","Frankfurt",16,0>, <"Berlin","Koeln",14,1>, <"Berlin","Hamburg",12,0>, <"Berlin","Hannover",10,0>, <"Berlin","Karlsruhe",8,1>, <"Berlin","Stuttgart",6,0>, <"Berlin","Muenchen",4,0>, <"Berlin","Nuernberg",2,0>, <"Berlin","Leipzig",2,0>, <"Leipzig","Frankfurt",18,0>, <"Leipzig","Koeln",16,0>, <"Leipzig","Hamburg",14,0>, <"Leipzig","Hannover",12,0>, <"Leipzig","Karlsruhe",10,0>, <"Leipzig","Stuttgart",8,0>, <"Leipzig","Muenchen",6,0>, <"Leipzig","Nuernberg",4,0>, <"Leipzig","Berlin",2,0>, <"Berlin","Koeln",14,1>, <"Berlin","Koeln",14,1>, <"Berlin","Karlsruhe",8,1>, <"Frankfurt","Nuernberg",14,1>};
